(set-logic HORN)
(declare-datatypes ((Nat_0 0)) (((Z_0 ) (S_0 (projS_0 Nat_0)))))
(declare-fun diseqNat_0 (Nat_0 Nat_0) Bool)
(declare-datatypes ((list_0 0)) (((nil_0 ) (cons_0 (head_0 Nat_0) (tail_0 list_0)))))
(declare-fun last_0 (Nat_0 list_0) Bool)
(declare-fun x_3 (list_0 list_0 list_0) Bool)
(assert (forall ((x_20 Nat_0))
	(diseqNat_0 Z_0 (S_0 x_20))))
(assert (forall ((x_21 Nat_0))
	(diseqNat_0 (S_0 x_21) Z_0)))
(assert (forall ((x_22 Nat_0) (x_23 Nat_0))
	(=> (diseqNat_0 x_22 x_23) (diseqNat_0 (S_0 x_22) (S_0 x_23)))))
(assert (forall ((x_5 Nat_0) (x_1 Nat_0) (x_2 list_0) (y_0 Nat_0))
	(=> (last_0 x_5 (cons_0 x_1 x_2)) (last_0 x_5 (cons_0 y_0 (cons_0 x_1 x_2))))))
(assert (forall ((x_7 Nat_0))
	(last_0 x_7 (cons_0 x_7 nil_0))))
(assert (last_0 Z_0 nil_0))
(assert (forall ((x_10 list_0) (z_2 Nat_0) (xs_0 list_0) (y_1 list_0))
	(=> (x_3 x_10 xs_0 y_1) (x_3 (cons_0 z_2 x_10) (cons_0 z_2 xs_0) y_1))))
(assert (forall ((x_11 list_0))
	(x_3 x_11 nil_0 x_11)))
(assert (forall ((x_12 list_0) (x_13 Nat_0) (x_14 Nat_0) (xs_1 list_0))
	(=> (and (diseqNat_0 x_13 x_14) (x_3 x_12 xs_1 nil_0) (last_0 x_13 x_12) (last_0 x_14 xs_1)) false)))
(check-sat)
(get-model)
